8297 7859
9042 6271
5757 1309
803 4716
2225 2873
9212 9873
5422 7182
3807 8786
2621 7831
7016 7276
3356 4600
8039 3408
730 2477
1527 9817
6572 5411
4602 7568
2236 9688
8645 3181
7851 8861
1906 3040
4917 8818
3262 9184
6252 4948
5967 5788
8670 1553
2577 5734
1219 7464
6532 419
3479 6665
4332 8231
8987 2355
2376 6058
3788 3039
2413 2547
6159 8023
1955 7819
3253 2569
6106 451
2586 8573
402 3659
6286 3984
7770 673
4904 7556
9188 1105
2238 4601
6273 6354
8205 863
2883 7465
694 8199
6014 9349
